/*------------
 * Multi-knapsack gmpl data
 *------------------------------*/

data;

param N := 3;
param b := 1 6, 2 5, 3 4;
param a1 := 1 1, 2 2, 3 3;
param a : 1 2 3 :=
      1   2 2 1
      2   1 3 1
      3   4 1 2;

end;
